<number of tasks>
50

<cycle time>
1000

<order strength>
0.197


<task times>
1 467
2 534
3 521
4 583
5 384
6 426
7 605
8 426
9 429
10 633
11 597
12 456
13 679
14 368
15 460
16 684
17 293
18 535
19 553
20 309
21 847
22 557
23 581
24 368
25 448
26 579
27 303
28 409
29 599
30 615
31 566
32 657
33 654
34 303
35 547
36 383
37 390
38 281
39 390
40 443
41 639
42 312
43 813
44 491
45 394
46 636
47 527
48 788
49 290
50 377

<precedence relations>
1,5
2,8
3,7
3,9
3,10
4,5
4,6
5,12
6,11
6,14
6,18
7,13
7,17
10,15
10,16
12,20
12,23
14,19
14,22
15,22
16,21
18,24
19,30
20,27
22,26
23,25
24,28
24,29
24,30
24,33
25,35
26,33
26,34
27,31
28,37
29,36
30,32
32,40
33,38
33,39
35,42
36,41
37,43
39,44
39,50
40,46
40,47
41,45
41,47
42,48
43,49

<end>
